(set-info :smt-lib-version 2.6)
(set-logic QF_SLIA)
(set-info :source |
Generated by: Joel Day, Thorsten Ehlers, Mitja Kulczynski, Federico Mora, Florin Manea, Dirk Nowotka, Danny Poulsen, Zhengyang Lu
Application: Test WOORPJE
Target solver: WOORPJE
Publications: Day, J. D., Ehlers, T., Kulczynski, M., Manea, F., Nowotka, D., & Poulsen, D. B. (2019). On solving word equations using SAT. In RP 2019
Description: Enriches a system of 30 word equations by suitable linear constraints
|)
(set-info :license "https://creativecommons.org/licenses/by/4.0/")
(set-info :category "random")
(set-info :status unknown)

(declare-fun H () String)
(declare-fun B () String)
(declare-fun E () String)
(declare-fun A () String)
(declare-fun J () String)
(assert (= (str.++  "dddeabc" E "b" B B A A "efffc" B "affe" B B "ebabea")  (str.++  "dd" H "c" J "ed" B "b" B B A A "efff" B B "affe" B B "ebabea") ))
(assert (= (str.++  "bfaedbedcdbb" B "bdefeebd" B "edcebfbdebfe" B B "dabe")  (str.++  "bfaedbed" B "dbb" B "bdefeebd" B "ed" B "ebfbdebfeccdabe") ))
(assert (= (str.++  "ebe" B "dafbdebaaeacefebbffdacaffefee" B "ddedba")  (str.++  "ebe" B "dafbdebaaeacefebbffda" B "affefee" B "ddedba") ))
(assert (>=(* (str.len H) 8) 32))
(assert (<=(* (str.len H) 14) 112))
(assert (>=(* (str.len J) 15) 60))
(assert (<=(* (str.len B) 3) 9))
(assert (>=(* (str.len E) 18) 72))
(assert (<=(* (str.len E) 9) 81))
(check-sat)

(exit)
